c This is UnifRandomKSATGenerator
c uniform random 3-SAT generated instance with: 
c clause length: 3 
c number variables: 20 
c number clauses: 85 
c clause to variable ratio: 4.27 
c random number generator name: SHA1PRNG 
c random number generator provider: SUN 
c random number generator seed: 9053228561478993204 
p cnf 20 85
1 18 -14 0
-1 -11 15 0
-3 -12 14 0
17 -3 7 0
17 -11 -16 0
-2 1 18 0
-17 -4 6 0
-9 12 15 0
12 -5 14 0
17 -4 14 0
-2 -12 20 0
18 12 7 0
-5 -7 -15 0
-17 1 -3 0
-10 -11 -13 0
-13 -14 -7 0
-9 3 -20 0
-19 -7 6 0
-1 6 -8 0
18 11 -6 0
-17 -3 15 0
-9 -12 5 0
17 1 19 0
1 9 -3 0
17 -4 7 0
16 -5 -14 0
-18 -13 15 0
-19 14 -15 0
17 13 7 0
18 -11 -13 0
-20 6 -8 0
18 19 -7 0
4 12 -6 0
-1 19 14 0
-9 16 -2 0
16 -14 -15 0
1 -20 5 0
-12 20 -8 0
3 5 -15 0
18 -13 15 0
-19 11 -5 0
-19 -13 6 0
1 18 -16 0
17 20 4 0
-1 17 7 0
-5 -7 15 0
-11 -20 -14 0
17 -15 -16 0
-10 -14 -16 0
-2 -18 9 0
1 -14 -16 0
-2 6 15 0
11 -14 -16 0
-18 20 15 0
2 -3 -15 0
3 -12 7 0
3 4 -8 0
-9 -2 -14 0
3 -12 11 0
-11 -3 6 0
-9 -1 -10 0
-20 -5 13 0
1 -5 4 0
-11 5 15 0
18 3 -16 0
-2 19 15 0
-11 18 5 0
-17 -18 3 0
-17 -15 7 0
-3 20 -15 0
17 -3 5 0
18 -3 5 0
-11 20 -15 0
-18 -19 -12 0
-12 -20 -5 0
-17 -2 -6 0
-10 -6 -8 0
9 5 6 0
-18 13 -16 0
-4 -12 19 0
-10 -11 -16 0
-3 -20 7 0
17 20 -6 0
9 -11 -20 0
9 -4 5 0
